clingo version 5.5.2
Reading from asynch.lp ...
UNKNOWN

TIME LIMIT   : 1
Models       : 0+
Calls        : 1
Time         : 100.000s (Solving: 0.00s 1st Model: 0.00s Unsat: 0.00s)
CPU Time     : 99.888s
